*SENSE:Minimize
NAME          MODEL
ROWS
 N  OBJ
 E  C0000000
 E  C0000001
 E  C0000002
 E  C0000003
 E  C0000004
 E  C0000005
 E  C0000006
 E  C0000007
 L  C0000008
 L  C0000009
 L  C0000010
 L  C0000011
 L  C0000012
 L  C0000013
COLUMNS
    MARK      'MARKER'                 'INTORG'
    X0000000  C0000008   1.000000000000e+00
    X0000000  C0000009   1.000000000000e+00
    X0000000  C0000010  -1.000000000000e+00
    X0000000  C0000012  -1.000000000000e+00
    MARK      'MARKER'                 'INTEND'
    MARK      'MARKER'                 'INTORG'
    X0000001  C0000008  -1.000000000000e+00
    X0000001  C0000010   1.000000000000e+00
    X0000001  C0000011   1.000000000000e+00
    X0000001  C0000013  -1.000000000000e+00
    MARK      'MARKER'                 'INTEND'
    MARK      'MARKER'                 'INTORG'
    X0000002  C0000009  -1.000000000000e+00
    X0000002  C0000011  -1.000000000000e+00
    X0000002  C0000012   1.000000000000e+00
    X0000002  C0000013   1.000000000000e+00
    MARK      'MARKER'                 'INTEND'
    MARK      'MARKER'                 'INTORG'
    X0000003  C0000003   1.000000000000e+00
    X0000003  C0000004   1.000000000000e+00
    X0000003  C0000008   4.000000000000e+00
    X0000003  OBJ        6.584290678026e+03
    MARK      'MARKER'                 'INTEND'
    MARK      'MARKER'                 'INTORG'
    X0000004  C0000003   1.000000000000e+00
    X0000004  C0000006   1.000000000000e+00
    X0000004  C0000009   4.000000000000e+00
    X0000004  OBJ        nan
    MARK      'MARKER'                 'INTEND'
    MARK      'MARKER'                 'INTORG'
    X0000005  C0000000   1.000000000000e+00
    X0000005  C0000003   1.000000000000e+00
    X0000005  OBJ        2.143971278565e+04
    MARK      'MARKER'                 'INTEND'
    MARK      'MARKER'                 'INTORG'
    X0000006  C0000002   1.000000000000e+00
    X0000006  C0000005   1.000000000000e+00
    X0000006  C0000010   4.000000000000e+00
    X0000006  OBJ        7.891701975723e+03
    MARK      'MARKER'                 'INTEND'
    MARK      'MARKER'                 'INTORG'
    X0000007  C0000005   1.000000000000e+00
    X0000007  C0000006   1.000000000000e+00
    X0000007  C0000011   4.000000000000e+00
    X0000007  OBJ        6.145371968566e+03
    MARK      'MARKER'                 'INTEND'
    MARK      'MARKER'                 'INTORG'
    X0000008  C0000000   1.000000000000e+00
    X0000008  C0000005   1.000000000000e+00
    X0000008  OBJ        2.171895381389e+04
    MARK      'MARKER'                 'INTEND'
    MARK      'MARKER'                 'INTORG'
    X0000009  C0000002   1.000000000000e+00
    X0000009  C0000007   1.000000000000e+00
    X0000009  C0000012   4.000000000000e+00
    X0000009  OBJ        nan
    MARK      'MARKER'                 'INTEND'
    MARK      'MARKER'                 'INTORG'
    X0000010  C0000004   1.000000000000e+00
    X0000010  C0000007   1.000000000000e+00
    X0000010  C0000013   4.000000000000e+00
    X0000010  OBJ        7.717528008015e+03
    MARK      'MARKER'                 'INTEND'
    MARK      'MARKER'                 'INTORG'
    X0000011  C0000000   1.000000000000e+00
    X0000011  C0000007   1.000000000000e+00
    X0000011  OBJ        2.135057468001e+04
    MARK      'MARKER'                 'INTEND'
    MARK      'MARKER'                 'INTORG'
    X0000012  C0000001   1.000000000000e+00
    X0000012  C0000002   1.000000000000e+00
    X0000012  OBJ        2.547819174679e+04
    MARK      'MARKER'                 'INTEND'
    MARK      'MARKER'                 'INTORG'
    X0000013  C0000001   1.000000000000e+00
    X0000013  C0000004   1.000000000000e+00
    X0000013  OBJ        2.539239941329e+04
    MARK      'MARKER'                 'INTEND'
    MARK      'MARKER'                 'INTORG'
    X0000014  C0000001   1.000000000000e+00
    X0000014  C0000006   1.000000000000e+00
    X0000014  OBJ        2.436361853601e+04
    MARK      'MARKER'                 'INTEND'
RHS
    RHS       C0000000   1.000000000000e+00
    RHS       C0000001   1.000000000000e+00
    RHS       C0000002   1.000000000000e+00
    RHS       C0000003   1.000000000000e+00
    RHS       C0000004   1.000000000000e+00
    RHS       C0000005   1.000000000000e+00
    RHS       C0000006   1.000000000000e+00
    RHS       C0000007   1.000000000000e+00
    RHS       C0000008   3.000000000000e+00
    RHS       C0000009   3.000000000000e+00
    RHS       C0000010   3.000000000000e+00
    RHS       C0000011   3.000000000000e+00
    RHS       C0000012   3.000000000000e+00
    RHS       C0000013   3.000000000000e+00
BOUNDS
 UP BND       X0000000   3.000000000000e+00
 UP BND       X0000001   3.000000000000e+00
 UP BND       X0000002   3.000000000000e+00
 BV BND       X0000003
 BV BND       X0000004
 BV BND       X0000005
 BV BND       X0000006
 BV BND       X0000007
 BV BND       X0000008
 BV BND       X0000009
 BV BND       X0000010
 BV BND       X0000011
 BV BND       X0000012
 BV BND       X0000013
 BV BND       X0000014
ENDATA
